c defined variables: 8 9 10 11 12 13 14 15 16 17 18 19 20 21 22 23 24 25 26 27 28 29 30 31 32 33 56 58 59 60 61 62 63 64 65 66 67 69 71 72 73 74 75 76 77 78 80 81 82 83 84 85 86 
p cnf 411 621
a 1 2 3 4 5 6 7 38 39 40 41 42 43 44 45 46 47 48 49 50 51 52 0
e 8 9 10 11 12 13 14 15 16 17 18 19 20 21 22 23 24 25 26 27 28 29 30 31 32 33 56 58 59 60 61 62 63 64 65 66 67 69 71 72 73 74 75 76 77 78 80 81 82 83 84 85 86 315 316 317 318 319 320 321 322 323 324 325 326 327 328 329 330 331 332 333 334 335 336 337 338 339 340 341 342 343 344 345 346 347 348 349 350 351 352 353 354 355 356 357 358 359 360 361 362 363 364 365 366 367 368 369 370 371 372 373 374 375 376 377 378 379 380 381 382 383 384 385 386 387 388 389 390 391 392 393 394 395 396 397 398 399 400 401 402 403 404 405 406 407 408 409 410 411 0
d 34 40 41 42 43 0
d 35 38 39 0
d 36 46 47 48 49 50 51 52 0
d 37 44 45 0
d 53 1 2 3 4 5 6 7 38 39 40 41 42 43 44 45 46 47 48 49 50 51 52 0
d 54 1 2 3 4 5 6 7 38 39 40 41 42 43 44 45 46 47 48 49 50 51 52 0
d 55 1 2 3 4 5 6 7 38 39 40 41 42 43 44 45 46 47 48 49 50 51 52 0
d 57 1 2 3 4 5 6 7 38 39 40 41 42 43 44 45 46 47 48 49 50 51 52 0
d 68 1 2 3 4 5 6 7 38 39 40 41 42 43 44 45 46 47 48 49 50 51 52 0
d 70 1 2 3 4 5 6 7 38 39 40 41 42 43 44 45 46 47 48 49 50 51 52 0
d 79 1 2 3 4 5 6 7 38 39 40 41 42 43 44 45 46 47 48 49 50 51 52 0
d 87 1 2 3 4 5 6 7 38 39 40 41 42 43 44 45 46 47 48 49 50 51 52 0
316 -8 0
-316 8 0
317 -9 0
-317 9 0
-318 -10 0
318 10 0
319 -11 0
-319 11 0
320 -12 0
-320 12 0
-321 -13 0
321 13 0
322 -14 0
-322 14 0
323 -15 0
-323 15 0
-324 -16 0
324 16 0
325 -17 0
-325 17 0
326 -18 0
-326 18 0
-327 -19 0
327 19 0
328 -20 0
-328 20 0
329 -21 0
-329 21 0
-330 -22 0
330 22 0
-331 -23 0
331 23 0
332 -24 0
-332 24 0
334 -25 0
-334 25 0
336 -26 0
-336 26 0
-338 -27 0
338 27 0
339 -28 0
-339 28 0
340 -29 0
-340 29 0
342 -30 0
-342 30 0
343 -31 0
-343 31 0
344 -32 0
-344 32 0
-348 -33 0
348 33 0
343 -56 0
-343 56 0
-352 -58 0
352 58 0
-317 -59 0
317 59 0
317 -60 0
-317 60 0
315 -61 0
-315 61 0
7 -62 0
-7 62 0
-61 -63 0
61 63 0
-353 -64 0
353 64 0
325 -65 0
-325 65 0
326 -66 0
-326 66 0
-354 -67 0
354 67 0
357 -69 0
-357 69 0
360 -71 0
-360 71 0
363 -72 0
-363 72 0
366 -73 0
-366 73 0
369 -74 0
-369 74 0
372 -75 0
-372 75 0
375 -76 0
-375 76 0
378 -77 0
-378 77 0
381 -78 0
-381 78 0
387 -80 0
-387 80 0
390 -81 0
-390 81 0
393 -82 0
-393 82 0
396 -83 0
-396 83 0
399 -84 0
-399 84 0
-405 -85 0
405 85 0
411 -86 0
-411 86 0
-8 1 0
-8 4 0
-1 -4 8 0
-9 -1 0
-9 -4 0
1 4 9 0
-8 10 0
-9 10 0
-10 8 9 0
-11 7 0
-11 10 0
-7 -10 11 0
-12 -7 0
-12 -10 0
7 10 12 0
-11 13 0
-12 13 0
-13 11 12 0
-14 4 0
-14 7 0
-4 -7 14 0
-15 1 0
-15 -13 0
-1 13 15 0
-14 16 0
-15 16 0
-16 14 15 0
-17 3 0
-17 6 0
-3 -6 17 0
-18 -3 0
-18 -6 0
3 6 18 0
-17 19 0
-18 19 0
-19 17 18 0
-20 16 0
-20 19 0
-16 -19 20 0
-21 -16 0
-21 -19 0
16 19 21 0
-20 22 0
-21 22 0
-22 20 21 0
-2 23 0
-5 23 0
-23 2 5 0
-24 2 0
-24 5 0
-2 -5 24 0
-25 3 0
-25 -22 0
-25 23 0
-3 22 -23 25 0
-26 6 0
-26 16 0
-26 23 0
-6 -16 -23 26 0
-24 27 0
-25 27 0
-26 27 0
-27 24 25 26 0
-28 -27 0
-28 23 0
27 -23 28 0
-29 3 0
-29 6 0
-29 -27 0
-3 -6 27 29 0
-30 -27 0
-30 -22 0
-30 16 0
27 22 -16 30 0
-31 2 0
-31 3 0
-31 5 0
-31 6 0
-2 -3 -5 -6 31 0
-32 2 0
-32 5 0
-32 -22 0
-32 16 0
-2 -5 22 -16 32 0
-28 33 0
-29 33 0
-30 33 0
-31 33 0
-32 33 0
-33 28 29 30 31 32 0
-53 -36 0
-53 35 0
36 -35 53 0
-54 3 0
-54 6 0
-54 -36 0
-3 -6 36 54 0
-55 -36 0
-55 -37 0
-55 34 0
36 37 -34 55 0
-56 2 0
-56 3 0
-56 5 0
-56 6 0
-2 -3 -5 -6 56 0
-57 2 0
-57 5 0
-57 -37 0
-57 34 0
-2 -5 37 -34 57 0
-53 58 0
-54 58 0
-55 58 0
-56 58 0
-57 58 0
-58 53 54 55 56 57 0
-4 59 0
-1 59 0
-59 4 1 0
-60 -1 0
-60 -4 0
1 4 60 0
-59 61 0
-60 61 0
-61 59 60 0
-62 7 0
-62 61 0
-7 -61 62 0
-63 -7 0
-63 -61 0
7 61 63 0
-62 64 0
-63 64 0
-64 62 63 0
-65 3 0
-65 6 0
-3 -6 65 0
-66 -3 0
-66 -6 0
3 6 66 0
-65 67 0
-66 67 0
-67 65 66 0
-68 -27 36 0
-68 27 -36 0
68 -27 -36 0
68 27 36 0
-69 -33 58 0
-69 33 -58 0
69 -33 -58 0
69 33 58 0
-70 -22 37 0
-70 22 -37 0
70 -22 -37 0
70 22 37 0
-71 -13 64 0
-71 13 -64 0
71 -13 -64 0
71 13 64 0
-68 -69 -70 -71 72 0
-72 68 0
-72 69 0
-72 70 0
-72 71 0
-2 -38 -73 0
-2 38 73 0
2 -38 73 0
2 38 -73 0
-5 -39 -74 0
-5 39 74 0
5 -39 74 0
5 39 -74 0
-1 -40 -75 0
-1 40 75 0
1 -40 75 0
1 40 -75 0
-4 -41 -76 0
-4 41 76 0
4 -41 76 0
4 41 -76 0
-7 -42 -77 0
-7 42 77 0
7 -42 77 0
7 42 -77 0
-64 -43 -78 0
-64 43 78 0
64 -43 78 0
64 43 -78 0
-34 -44 -79 0
-34 44 79 0
34 -44 79 0
34 44 -79 0
-67 -45 -80 0
-67 45 80 0
67 -45 80 0
67 45 -80 0
-2 -46 -81 0
-2 46 81 0
2 -46 81 0
2 46 -81 0
-3 -47 -82 0
-3 47 82 0
3 -47 82 0
3 47 -82 0
-5 -48 -83 0
-5 48 83 0
5 -48 83 0
5 48 -83 0
-6 -49 -84 0
-6 49 84 0
6 -49 84 0
6 49 -84 0
-37 -50 -85 0
-37 50 85 0
37 -50 85 0
37 50 -85 0
-34 -51 -86 0
-34 51 86 0
34 -51 86 0
34 51 -86 0
-35 -52 -87 0
-35 52 87 0
35 -52 87 0
35 52 -87 0
73 74 75 76 77 78 79 80 81 82 83 84 85 86 87 72 0
315 0
1 -316 0
4 -316 0
-1 -4 316 0
-1 -317 0
-4 -317 0
1 4 317 0
-8 -318 0
-9 -318 0
8 9 318 0
7 -319 0
10 -319 0
-7 -10 319 0
-7 -320 0
-10 -320 0
7 10 320 0
-11 -321 0
-12 -321 0
11 12 321 0
4 -322 0
7 -322 0
-4 -7 322 0
1 -323 0
-13 -323 0
-1 13 323 0
-14 -324 0
-15 -324 0
14 15 324 0
3 -325 0
6 -325 0
-3 -6 325 0
-3 -326 0
-6 -326 0
3 6 326 0
-17 -327 0
-18 -327 0
17 18 327 0
16 -328 0
19 -328 0
-16 -19 328 0
-16 -329 0
-19 -329 0
16 19 329 0
-20 -330 0
-21 -330 0
20 21 330 0
-2 -331 0
-5 -331 0
2 5 331 0
2 -332 0
5 -332 0
-2 -5 332 0
3 -333 0
-22 -333 0
-3 22 333 0
23 -334 0
333 -334 0
-23 -333 334 0
6 -335 0
16 -335 0
-6 -16 335 0
23 -336 0
335 -336 0
-23 -335 336 0
-24 -337 0
-25 -337 0
24 25 337 0
-26 -338 0
337 -338 0
26 -337 338 0
23 -339 0
-27 -339 0
-23 27 339 0
-27 -340 0
325 -340 0
27 -325 340 0
16 -341 0
-22 -341 0
-16 22 341 0
-27 -342 0
341 -342 0
27 -341 342 0
325 -343 0
332 -343 0
-325 -332 343 0
332 -344 0
341 -344 0
-332 -341 344 0
-28 -345 0
-29 -345 0
28 29 345 0
-30 -346 0
-31 -346 0
30 31 346 0
-32 -347 0
346 -347 0
32 -346 347 0
345 -348 0
347 -348 0
-345 -347 348 0
-53 -349 0
-54 -349 0
53 54 349 0
-55 -350 0
-56 -350 0
55 56 350 0
-57 -351 0
350 -351 0
57 -350 351 0
349 -352 0
351 -352 0
-349 -351 352 0
-62 -353 0
-63 -353 0
62 63 353 0
-65 -354 0
-66 -354 0
65 66 354 0
33 -355 0
-58 -355 0
-33 58 355 0
-33 -356 0
58 -356 0
33 -58 356 0
-355 -357 0
-356 -357 0
355 356 357 0
13 -358 0
-64 -358 0
-13 64 358 0
-13 -359 0
64 -359 0
13 -64 359 0
-358 -360 0
-359 -360 0
358 359 360 0
68 -361 0
69 -361 0
-68 -69 361 0
70 -362 0
71 -362 0
-70 -71 362 0
361 -363 0
362 -363 0
-361 -362 363 0
-2 -364 0
-38 -364 0
2 38 364 0
2 -365 0
38 -365 0
-2 -38 365 0
-364 -366 0
-365 -366 0
364 365 366 0
-5 -367 0
-39 -367 0
5 39 367 0
5 -368 0
39 -368 0
-5 -39 368 0
-367 -369 0
-368 -369 0
367 368 369 0
-1 -370 0
-40 -370 0
1 40 370 0
1 -371 0
40 -371 0
-1 -40 371 0
-370 -372 0
-371 -372 0
370 371 372 0
-4 -373 0
-41 -373 0
4 41 373 0
4 -374 0
41 -374 0
-4 -41 374 0
-373 -375 0
-374 -375 0
373 374 375 0
-7 -376 0
-42 -376 0
7 42 376 0
7 -377 0
42 -377 0
-7 -42 377 0
-376 -378 0
-377 -378 0
376 377 378 0
-43 -379 0
-64 -379 0
43 64 379 0
43 -380 0
64 -380 0
-43 -64 380 0
-379 -381 0
-380 -381 0
379 380 381 0
-325 -382 0
-326 -382 0
325 326 382 0
-45 -383 0
67 -383 0
45 -67 383 0
-382 -384 0
-383 -384 0
382 383 384 0
45 -385 0
-67 -385 0
-45 67 385 0
382 -386 0
-385 -386 0
-382 385 386 0
-384 -387 0
-386 -387 0
384 386 387 0
-2 -388 0
-46 -388 0
2 46 388 0
2 -389 0
46 -389 0
-2 -46 389 0
-388 -390 0
-389 -390 0
388 389 390 0
-3 -391 0
-47 -391 0
3 47 391 0
3 -392 0
47 -392 0
-3 -47 392 0
-391 -393 0
-392 -393 0
391 392 393 0
-5 -394 0
-48 -394 0
5 48 394 0
5 -395 0
48 -395 0
-5 -48 395 0
-394 -396 0
-395 -396 0
394 395 396 0
-6 -397 0
-49 -397 0
6 49 397 0
6 -398 0
49 -398 0
-6 -49 398 0
-397 -399 0
-398 -399 0
397 398 399 0
-22 -400 0
70 -400 0
22 -70 400 0
22 -401 0
-70 -401 0
-22 70 401 0
-400 -402 0
-401 -402 0
400 401 402 0
50 -403 0
-402 -403 0
-50 402 403 0
-50 -404 0
402 -404 0
50 -402 404 0
-403 -405 0
-404 -405 0
403 404 405 0
-51 -406 0
79 -406 0
51 -79 406 0
51 -407 0
-79 -407 0
-51 79 407 0
-406 -408 0
-407 -408 0
406 407 408 0
44 -409 0
-408 -409 0
-44 408 409 0
-44 -410 0
408 -410 0
44 -408 410 0
-409 -411 0
-410 -411 0
409 410 411 0
